50

100 3 307
100 4 304
99 6 298
96 6 354
96 9 345
93 17 360
91 6 305
90 14 299
90 8 347
87 7 341
84 5 259
83 23 265
80 22 332
80 3 304
80 22 254
75 8 299
74 12 297
72 6 314
72 21 314
71 16 319
71 12 254
70 1 260
69 1 345
66 2 355
65 7 320
63 19 344
60 7 242
58 4 340
57 16 313
56 1 287
54 11 345
54 7 338
53 8 344
53 16 290
53 6 301
51 11 253
51 3 181
49 15 345
46 1 357
43 12 258
40 1 184
39 2 206
38 8 254
37 9 322
37 11 168
34 10 106
33 1 225
33 5 298
31 2 309
31 1 260
